NAME: 8x8 Grid TSP
TYPE: TSP
DIMENSION: 64
EDGE_WEIGHT_TYPE: EUC_2D
NODE_COORD_SECTION
1  0  0
2  1  0
3  2  0
4  3  0
5  4  0
6  5  0
7  6  0
8  7  0
9  0  1
10  1  1
11  2  1
12  3  1
13  4  1
14  5  1
15  6  1
16  7  1
17  0  2
18  1  2
19  2  2
20  3  2
21  4  2
22  5  2
23  6  2
24  7  2
25  0  3
26  1  3
27  2  3
28  3  3
29  4  3
30  5  3
31  6  3
32  7  3
33  0  4
34  1  4
35  2  4
36  3  4
37  4  4
38  5  4
39  6  4
40  7  4
41  0  5
42  1  5
43  2  5
44  3  5
45  4  5
46  5  5
47  6  5
48  7  5
49  0  6
50  1  6
51  2  6
52  3  6
53  4  6
54  5  6
55  6  6
56  7  6
57  0  7
58  1  7
59  2  7
60  3  7
61  4  7
62  5  7
63  6  7
64  7  7
EOF